unsat
(:max-memory         18.53
 :memory             18.42
 :nlsat-arith-var    3
 :nlsat-atoms        14
 :nlsat-bool-var     1
 :nlsat-clauses      12
 :nlsat-conflicts    3
 :nlsat-propagations 9
 :nlsat-stages       3
 :num-allocs         62421
 :rlimit-count       6905
 :time               0.00
 :total-time         0.02)
